
  32    4
  10   10   10   10

   0   0   0   0   0   5 2 3 4 5 6 
  10   1   1   1   0   4 10 9 8 7 
  10   6   0   3   1   3 10 8 7 
   4   4   0   4   5   3 9 8 7 
   7   0   4   2   5   3 10 9 8 
   7   6   3   0   2   2 10 8 
   9   4   6   4   0   6 17 15 14 13 12 11 
   3   6   4   0   2   5 17 15 13 12 11 
   7   2   4   2   0   5 17 15 14 12 11 
   9   0   2   4   2   4 17 14 13 11 
   6   0   4   6   4   2 18 16 
   1   2   0   2   7   2 18 16 
   2   0   5   6   4   2 18 16 
   1   5   0   6   3   2 18 16 
   5   0   5   2   4   2 18 16 
   1   0   3   4   5  10 28 27 26 25 24 23 22 21 20 19 
   3   4   0   3   6  10 28 27 26 25 24 23 22 21 20 19 
   7   2   4   0   5   9 29 26 25 24 23 22 21 20 19 
   6   4   7   0   4   2 31 30 
   1   4   6   4   0   2 31 30 
   8   5   5   9   0   2 31 30 
   4   5   2   8   0   2 31 30 
   4   5   0   5   7   2 31 30 
   9   5   5   0   4   2 31 30 
   3   2   4   4   0   2 31 30 
   4   0   7   5   4   2 31 30 
   2   0   2   3   5   2 31 30 
   6   0   3   3   3   2 31 30 
   2   4   0   3   4   2 31 30 
   3   0   2   5   4   1 32
   7   4   0   2   2   1 32
   0   0   0   0   0   0 
